g3 1 1 0	# problem inst_sans_ref
 10 5 1 0 0	# vars, constraints, objectives, ranges, eqns
 5 1	# nonlinear constraints, objectives
 0 0	# network constraints: nonlinear, linear
 10 10 10	# nonlinear vars in constraints, objectives, both
 0 0 0 1	# linear network variables; functions; arith, flags
 0 0 0 0 0	# discrete variables: binary, integer, nonlinear (b,c,o)
 48 10	# nonzeros in Jacobian, gradients
 0 0	# max name lengths: constraints, variables
 0 0 0 0 0	# common exprs: b,c,o,c1,o1
b
0 0 20
0 0 20
0 0 20
0 0 20
0 0 20
0 0 20
0 0 20
0 0 20
0 0 20
0 0 20
r
1 5160
1 4360
1 4760
1 6120
1 5280
C0
o54
21
o2
o2
n6
v0
v2
o2
o2
n8
v0
v4
o2
o2
n6
v2
v0
o2
o2
n7
v2
v4
o2
o2
n3
v2
v5
o2
o2
n10
v3
v5
o2
o2
n8
v3
v8
o2
o2
n8
v4
v0
o2
o2
n7
v4
v2
o2
o2
n6
v4
v5
o2
o2
n6
v4
v8
o2
o2
n3
v5
v2
o2
o2
n10
v5
v3
o2
o2
n6
v5
v4
o2
o2
n5
v6
v6
o2
v6
v8
o2
o2
n7
v7
v9
o2
o2
n8
v8
v3
o2
o2
n6
v8
v4
o2
v8
v6
o2
o2
n7
v9
v7
C1
o54
22
o2
o2
n5
v0
v3
o2
o2
n5
v1
v6
o2
o2
n3
v1
v9
o2
o2
n4
v2
v2
o2
o2
n7
v2
v7
o2
o2
n5
v3
v0
o2
o2
n8
v3
v5
o2
o2
n7
v3
v8
o2
o2
n8
v4
v9
o2
o2
n8
v5
v3
o2
o2
n2
v5
v7
o2
o2
n5
v6
v1
o2
v6
v8
o2
o2
n5
v6
v9
o2
o2
n7
v7
v2
o2
o2
n2
v7
v5
o2
o2
n7
v8
v3
o2
v8
v6
o2
o2
n3
v9
v1
o2
o2
n8
v9
v4
o2
o2
n5
v9
v6
o2
o2
n3
v9
v9
C2
o54
21
o2
v0
v0
o2
o2
n7
v0
v2
o2
o2
n9
v0
v3
o2
o2
n5
v0
v4
o2
o2
n8
v0
v5
o2
o2
n3
v0
v6
o2
o2
n9
v1
v1
o2
v1
v3
o2
o2
n7
v2
v0
o2
o2
n9
v3
v0
o2
v3
v1
o2
o2
n7
v3
v5
o2
o2
n5
v4
v0
o2
o2
n8
v5
v0
o2
o2
n7
v5
v3
o2
o2
n7
v5
v5
o2
o2
n3
v6
v0
o2
o2
n4
v6
v9
o2
o2
n7
v8
v9
o2
o2
n4
v9
v6
o2
o2
n7
v9
v8
C3
o54
26
o2
o2
n8
v0
v2
o2
o2
n6
v0
v5
o2
o2
n8
v0
v8
o2
o2
n7
v1
v4
o2
o2
n6
v1
v9
o2
o2
n8
v2
v0
o2
v2
v3
o2
v3
v2
o2
o2
n9
v3
v3
o2
o2
n7
v3
v6
o2
o2
n7
v4
v1
o2
o2
n8
v4
v4
o2
o2
n6
v5
v0
o2
o2
n2
v5
v6
o2
o2
n7
v6
v3
o2
o2
n2
v6
v5
o2
o2
n9
v6
v7
o2
v6
v8
o2
o2
n9
v7
v6
o2
o2
n8
v7
v9
o2
o2
n8
v8
v0
o2
v8
v6
o2
o2
n5
v8
v9
o2
o2
n6
v9
v1
o2
o2
n8
v9
v7
o2
o2
n5
v9
v8
C4
o54
26
o2
o2
n5
v0
v0
o2
o2
n6
v0
v2
o2
o2
n6
v0
v4
o2
o2
n3
v0
v8
o2
o2
n5
v0
v9
o2
o2
n6
v1
v1
o2
o2
n4
v1
v9
o2
o2
n6
v2
v0
o2
o2
n3
v2
v5
o2
o2
n8
v3
v4
o2
o2
n4
v3
v7
o2
o2
n6
v4
v0
o2
o2
n8
v4
v3
o2
o2
n3
v4
v6
o2
o2
n3
v5
v2
o2
o2
n8
v5
v5
o2
o2
n5
v5
v8
o2
o2
n5
v5
v9
o2
o2
n3
v6
v4
o2
o2
n4
v7
v3
o2
o2
n3
v8
v0
o2
o2
n5
v8
v5
o2
o2
n5
v9
v0
o2
o2
n4
v9
v1
o2
o2
n5
v9
v5
o2
o2
n9
v9
v9
O0 0
o54
55
o2
o2
n-4
v0
v0
o2
o2
n-5
v0
v3
o2
o2
n2
v0
v4
o2
o2
n-4
v1
v4
o2
o2
n3
v1
v9
o2
o2
n5
v2
v2
o16
o2
v2
v3
o2
v2
v4
o2
v2
v6
o2
o2
n3
v2
v8
o2
v2
v9
o2
o2
n-5
v3
v0
o16
o2
v3
v2
o16
o2
v3
v5
o2
o2
n-3
v3
v6
o2
o2
n-5
v3
v7
o16
o2
v3
v8
o2
o2
n-5
v3
v9
o2
o2
n2
v4
v0
o2
o2
n-4
v4
v1
o2
v4
v2
o2
o2
n-4
v4
v4
o2
o2
n5
v4
v5
o2
o2
n-4
v4
v6
o2
o2
n-3
v4
v9
o16
o2
v5
v3
o2
o2
n5
v5
v4
o2
o2
n-4
v5
v6
o16
o2
v5
v7
o2
o2
n4
v5
v8
o2
v6
v2
o2
o2
n-3
v6
v3
o2
o2
n-4
v6
v4
o2
o2
n-4
v6
v5
o2
o2
n4
v6
v6
o2
o2
n-2
v6
v9
o2
o2
n-5
v7
v3
o16
o2
v7
v5
o2
o2
n4
v7
v7
o2
o2
n4
v7
v8
o2
o2
n4
v7
v9
o2
o2
n3
v8
v2
o16
o2
v8
v3
o2
o2
n4
v8
v5
o2
o2
n4
v8
v7
o2
o2
n5
v8
v8
o2
o2
n-2
v8
v9
o2
o2
n3
v9
v1
o2
v9
v2
o2
o2
n-5
v9
v3
o2
o2
n-3
v9
v4
o2
o2
n-2
v9
v6
o2
o2
n4
v9
v7
o2
o2
n-2
v9
v8
o2
o2
n2
v9
v9
k9
5
9
14
19
24
29
34
38
43
J0 9
0 0
2 0
3 0
4 0
5 0
6 0
7 0
8 0
9 0
J1 10
0 0
1 0
2 0
3 0
4 0
5 0
6 0
7 0
8 0
9 0
J2 9
0 0
1 0
2 0
3 0
4 0
5 0
6 0
8 0
9 0
J3 10
0 0
1 0
2 0
3 0
4 0
5 0
6 0
7 0
8 0
9 0
J4 10
0 0
1 0
2 0
3 0
4 0
5 0
6 0
7 0
8 0
9 0
G0 10
0 0
1 0
2 0
3 0
4 0
5 0
6 0
7 0
8 0
9 0
